(set-logic QF_LRA)
(declare-fun T1 () Real )
(declare-fun T2 () Real )
(declare-fun T3 () Real )
(declare-fun T4 () Real )
(declare-fun T5 () Real )
(declare-fun T6 () Real )
(declare-fun T7 () Real )
(declare-fun T8 () Real )
(declare-fun Z () Real )
(declare-fun k () Real )
(assert (let
(( $goal (>= Z k) ))
(let
((
$phi ( and 
(or ( <= ( + T1 100 ) T2 ) ( <= ( + T2 79 ) T1 ) )
(or ( <= ( + T1 155 )  ( + T2 79 ) ) ( <= ( + T2 158 )( + T1 100 ) ) )
(or ( <= ( + T1 243 )  ( + T2 158 ) ) ( <= ( + T2 252 )( + T1 155 ) ) )
(or ( <= ( + T1 261 )  ( + T2 252 ) ) ( <= ( + T2 337 )( + T1 243 ) ) )
(or ( <= ( + T1 326 )  ( + T2 337 ) ) ( <= ( + T2 343 )( + T1 261 ) ) )
(or ( <= ( + T1 413 )  ( + T2 343 ) ) ( <= ( + T2 407 )( + T1 326 ) ) )
(or ( <= ( + T1 100 ) T3 ) ( <= ( + T3 80 ) T1 ) )
(or ( <= ( + T1 155 )  ( + T3 80 ) ) ( <= ( + T3 159 )( + T1 100 ) ) )
(or ( <= ( + T1 243 )  ( + T3 159 ) ) ( <= ( + T3 183 )( + T1 155 ) ) )
(or ( <= ( + T1 261 )  ( + T3 183 ) ) ( <= ( + T3 210 )( + T1 243 ) ) )
(or ( <= ( + T1 326 )  ( + T3 210 ) ) ( <= ( + T3 212 )( + T1 261 ) ) )
(or ( <= ( + T1 413 )  ( + T3 212 ) ) ( <= ( + T3 213 )( + T1 326 ) ) )
(or ( <= ( + T1 100 ) T4 ) ( <= ( + T4 52 ) T1 ) )
(or ( <= ( + T1 155 )  ( + T4 52 ) ) ( <= ( + T4 104 )( + T1 100 ) ) )
(or ( <= ( + T1 243 )  ( + T4 104 ) ) ( <= ( + T4 140 )( + T1 155 ) ) )
(or ( <= ( + T1 261 )  ( + T4 140 ) ) ( <= ( + T4 159 )( + T1 243 ) ) )
(or ( <= ( + T1 326 )  ( + T4 159 ) ) ( <= ( + T4 194 )( + T1 261 ) ) )
(or ( <= ( + T1 413 )  ( + T4 194 ) ) ( <= ( + T4 287 )( + T1 326 ) ) )
(or ( <= ( + T1 100 ) T5 ) ( <= ( + T5 1 ) T1 ) )
(or ( <= ( + T1 155 )  ( + T5 1 ) ) ( <= ( + T5 47 )( + T1 100 ) ) )
(or ( <= ( + T1 243 )  ( + T5 47 ) ) ( <= ( + T5 118 )( + T1 155 ) ) )
(or ( <= ( + T1 261 )  ( + T5 118 ) ) ( <= ( + T5 203 )( + T1 243 ) ) )
(or ( <= ( + T1 326 )  ( + T5 203 ) ) ( <= ( + T5 237 )( + T1 261 ) ) )
(or ( <= ( + T1 413 )  ( + T5 237 ) ) ( <= ( + T5 254 )( + T1 326 ) ) )
(or ( <= ( + T1 100 ) T6 ) ( <= ( + T6 95 ) T1 ) )
(or ( <= ( + T1 155 )  ( + T6 95 ) ) ( <= ( + T6 128 )( + T1 100 ) ) )
(or ( <= ( + T1 243 )  ( + T6 128 ) ) ( <= ( + T6 151 )( + T1 155 ) ) )
(or ( <= ( + T1 261 )  ( + T6 151 ) ) ( <= ( + T6 233 )( + T1 243 ) ) )
(or ( <= ( + T1 326 )  ( + T6 233 ) ) ( <= ( + T6 284 )( + T1 261 ) ) )
(or ( <= ( + T1 413 )  ( + T6 284 ) ) ( <= ( + T6 371 )( + T1 326 ) ) )
(or ( <= ( + T1 100 ) T7 ) ( <= ( + T7 20 ) T1 ) )
(or ( <= ( + T1 155 )  ( + T7 20 ) ) ( <= ( + T7 49 )( + T1 100 ) ) )
(or ( <= ( + T1 243 )  ( + T7 49 ) ) ( <= ( + T7 66 )( + T1 155 ) ) )
(or ( <= ( + T1 261 )  ( + T7 66 ) ) ( <= ( + T7 79 )( + T1 243 ) ) )
(or ( <= ( + T1 326 )  ( + T7 79 ) ) ( <= ( + T7 144 )( + T1 261 ) ) )
(or ( <= ( + T1 413 )  ( + T7 144 ) ) ( <= ( + T7 219 )( + T1 326 ) ) )
(or ( <= ( + T1 100 ) T8 ) ( <= ( + T8 77 ) T1 ) )
(or ( <= ( + T1 155 )  ( + T8 77 ) ) ( <= ( + T8 122 )( + T1 100 ) ) )
(or ( <= ( + T1 243 )  ( + T8 122 ) ) ( <= ( + T8 175 )( + T1 155 ) ) )
(or ( <= ( + T1 261 )  ( + T8 175 ) ) ( <= ( + T8 227 )( + T1 243 ) ) )
(or ( <= ( + T1 326 )  ( + T8 227 ) ) ( <= ( + T8 250 )( + T1 261 ) ) )
(or ( <= ( + T1 413 )  ( + T8 250 ) ) ( <= ( + T8 257 )( + T1 326 ) ) )
(or ( <= ( + T2 79 ) T3 ) ( <= ( + T3 80 ) T2 ) )
(or ( <= ( + T2 158 )  ( + T3 80 ) ) ( <= ( + T3 159 )( + T2 79 ) ) )
(or ( <= ( + T2 252 )  ( + T3 159 ) ) ( <= ( + T3 183 )( + T2 158 ) ) )
(or ( <= ( + T2 337 )  ( + T3 183 ) ) ( <= ( + T3 210 )( + T2 252 ) ) )
(or ( <= ( + T2 343 )  ( + T3 210 ) ) ( <= ( + T3 212 )( + T2 337 ) ) )
(or ( <= ( + T2 407 )  ( + T3 212 ) ) ( <= ( + T3 213 )( + T2 343 ) ) )
(or ( <= ( + T2 79 ) T4 ) ( <= ( + T4 52 ) T2 ) )
(or ( <= ( + T2 158 )  ( + T4 52 ) ) ( <= ( + T4 104 )( + T2 79 ) ) )
(or ( <= ( + T2 252 )  ( + T4 104 ) ) ( <= ( + T4 140 )( + T2 158 ) ) )
(or ( <= ( + T2 337 )  ( + T4 140 ) ) ( <= ( + T4 159 )( + T2 252 ) ) )
(or ( <= ( + T2 343 )  ( + T4 159 ) ) ( <= ( + T4 194 )( + T2 337 ) ) )
(or ( <= ( + T2 407 )  ( + T4 194 ) ) ( <= ( + T4 287 )( + T2 343 ) ) )
(or ( <= ( + T2 79 ) T5 ) ( <= ( + T5 1 ) T2 ) )
(or ( <= ( + T2 158 )  ( + T5 1 ) ) ( <= ( + T5 47 )( + T2 79 ) ) )
(or ( <= ( + T2 252 )  ( + T5 47 ) ) ( <= ( + T5 118 )( + T2 158 ) ) )
(or ( <= ( + T2 337 )  ( + T5 118 ) ) ( <= ( + T5 203 )( + T2 252 ) ) )
(or ( <= ( + T2 343 )  ( + T5 203 ) ) ( <= ( + T5 237 )( + T2 337 ) ) )
(or ( <= ( + T2 407 )  ( + T5 237 ) ) ( <= ( + T5 254 )( + T2 343 ) ) )
(or ( <= ( + T2 79 ) T6 ) ( <= ( + T6 95 ) T2 ) )
(or ( <= ( + T2 158 )  ( + T6 95 ) ) ( <= ( + T6 128 )( + T2 79 ) ) )
(or ( <= ( + T2 252 )  ( + T6 128 ) ) ( <= ( + T6 151 )( + T2 158 ) ) )
(or ( <= ( + T2 337 )  ( + T6 151 ) ) ( <= ( + T6 233 )( + T2 252 ) ) )
(or ( <= ( + T2 343 )  ( + T6 233 ) ) ( <= ( + T6 284 )( + T2 337 ) ) )
(or ( <= ( + T2 407 )  ( + T6 284 ) ) ( <= ( + T6 371 )( + T2 343 ) ) )
(or ( <= ( + T2 79 ) T7 ) ( <= ( + T7 20 ) T2 ) )
(or ( <= ( + T2 158 )  ( + T7 20 ) ) ( <= ( + T7 49 )( + T2 79 ) ) )
(or ( <= ( + T2 252 )  ( + T7 49 ) ) ( <= ( + T7 66 )( + T2 158 ) ) )
(or ( <= ( + T2 337 )  ( + T7 66 ) ) ( <= ( + T7 79 )( + T2 252 ) ) )
(or ( <= ( + T2 343 )  ( + T7 79 ) ) ( <= ( + T7 144 )( + T2 337 ) ) )
(or ( <= ( + T2 407 )  ( + T7 144 ) ) ( <= ( + T7 219 )( + T2 343 ) ) )
(or ( <= ( + T2 79 ) T8 ) ( <= ( + T8 77 ) T2 ) )
(or ( <= ( + T2 158 )  ( + T8 77 ) ) ( <= ( + T8 122 )( + T2 79 ) ) )
(or ( <= ( + T2 252 )  ( + T8 122 ) ) ( <= ( + T8 175 )( + T2 158 ) ) )
(or ( <= ( + T2 337 )  ( + T8 175 ) ) ( <= ( + T8 227 )( + T2 252 ) ) )
(or ( <= ( + T2 343 )  ( + T8 227 ) ) ( <= ( + T8 250 )( + T2 337 ) ) )
(or ( <= ( + T2 407 )  ( + T8 250 ) ) ( <= ( + T8 257 )( + T2 343 ) ) )
(or ( <= ( + T3 80 ) T4 ) ( <= ( + T4 52 ) T3 ) )
(or ( <= ( + T3 159 )  ( + T4 52 ) ) ( <= ( + T4 104 )( + T3 80 ) ) )
(or ( <= ( + T3 183 )  ( + T4 104 ) ) ( <= ( + T4 140 )( + T3 159 ) ) )
(or ( <= ( + T3 210 )  ( + T4 140 ) ) ( <= ( + T4 159 )( + T3 183 ) ) )
(or ( <= ( + T3 212 )  ( + T4 159 ) ) ( <= ( + T4 194 )( + T3 210 ) ) )
(or ( <= ( + T3 213 )  ( + T4 194 ) ) ( <= ( + T4 287 )( + T3 212 ) ) )
(or ( <= ( + T3 80 ) T5 ) ( <= ( + T5 1 ) T3 ) )
(or ( <= ( + T3 159 )  ( + T5 1 ) ) ( <= ( + T5 47 )( + T3 80 ) ) )
(or ( <= ( + T3 183 )  ( + T5 47 ) ) ( <= ( + T5 118 )( + T3 159 ) ) )
(or ( <= ( + T3 210 )  ( + T5 118 ) ) ( <= ( + T5 203 )( + T3 183 ) ) )
(or ( <= ( + T3 212 )  ( + T5 203 ) ) ( <= ( + T5 237 )( + T3 210 ) ) )
(or ( <= ( + T3 213 )  ( + T5 237 ) ) ( <= ( + T5 254 )( + T3 212 ) ) )
(or ( <= ( + T3 80 ) T6 ) ( <= ( + T6 95 ) T3 ) )
(or ( <= ( + T3 159 )  ( + T6 95 ) ) ( <= ( + T6 128 )( + T3 80 ) ) )
(or ( <= ( + T3 183 )  ( + T6 128 ) ) ( <= ( + T6 151 )( + T3 159 ) ) )
(or ( <= ( + T3 210 )  ( + T6 151 ) ) ( <= ( + T6 233 )( + T3 183 ) ) )
(or ( <= ( + T3 212 )  ( + T6 233 ) ) ( <= ( + T6 284 )( + T3 210 ) ) )
(or ( <= ( + T3 213 )  ( + T6 284 ) ) ( <= ( + T6 371 )( + T3 212 ) ) )
(or ( <= ( + T3 80 ) T7 ) ( <= ( + T7 20 ) T3 ) )
(or ( <= ( + T3 159 )  ( + T7 20 ) ) ( <= ( + T7 49 )( + T3 80 ) ) )
(or ( <= ( + T3 183 )  ( + T7 49 ) ) ( <= ( + T7 66 )( + T3 159 ) ) )
(or ( <= ( + T3 210 )  ( + T7 66 ) ) ( <= ( + T7 79 )( + T3 183 ) ) )
(or ( <= ( + T3 212 )  ( + T7 79 ) ) ( <= ( + T7 144 )( + T3 210 ) ) )
(or ( <= ( + T3 213 )  ( + T7 144 ) ) ( <= ( + T7 219 )( + T3 212 ) ) )
(or ( <= ( + T3 80 ) T8 ) ( <= ( + T8 77 ) T3 ) )
(or ( <= ( + T3 159 )  ( + T8 77 ) ) ( <= ( + T8 122 )( + T3 80 ) ) )
(or ( <= ( + T3 183 )  ( + T8 122 ) ) ( <= ( + T8 175 )( + T3 159 ) ) )
(or ( <= ( + T3 210 )  ( + T8 175 ) ) ( <= ( + T8 227 )( + T3 183 ) ) )
(or ( <= ( + T3 212 )  ( + T8 227 ) ) ( <= ( + T8 250 )( + T3 210 ) ) )
(or ( <= ( + T3 213 )  ( + T8 250 ) ) ( <= ( + T8 257 )( + T3 212 ) ) )
(or ( <= ( + T4 52 ) T5 ) ( <= ( + T5 1 ) T4 ) )
(or ( <= ( + T4 104 )  ( + T5 1 ) ) ( <= ( + T5 47 )( + T4 52 ) ) )
(or ( <= ( + T4 140 )  ( + T5 47 ) ) ( <= ( + T5 118 )( + T4 104 ) ) )
(or ( <= ( + T4 159 )  ( + T5 118 ) ) ( <= ( + T5 203 )( + T4 140 ) ) )
(or ( <= ( + T4 194 )  ( + T5 203 ) ) ( <= ( + T5 237 )( + T4 159 ) ) )
(or ( <= ( + T4 287 )  ( + T5 237 ) ) ( <= ( + T5 254 )( + T4 194 ) ) )
(or ( <= ( + T4 52 ) T6 ) ( <= ( + T6 95 ) T4 ) )
(or ( <= ( + T4 104 )  ( + T6 95 ) ) ( <= ( + T6 128 )( + T4 52 ) ) )
(or ( <= ( + T4 140 )  ( + T6 128 ) ) ( <= ( + T6 151 )( + T4 104 ) ) )
(or ( <= ( + T4 159 )  ( + T6 151 ) ) ( <= ( + T6 233 )( + T4 140 ) ) )
(or ( <= ( + T4 194 )  ( + T6 233 ) ) ( <= ( + T6 284 )( + T4 159 ) ) )
(or ( <= ( + T4 287 )  ( + T6 284 ) ) ( <= ( + T6 371 )( + T4 194 ) ) )
(or ( <= ( + T4 52 ) T7 ) ( <= ( + T7 20 ) T4 ) )
(or ( <= ( + T4 104 )  ( + T7 20 ) ) ( <= ( + T7 49 )( + T4 52 ) ) )
(or ( <= ( + T4 140 )  ( + T7 49 ) ) ( <= ( + T7 66 )( + T4 104 ) ) )
(or ( <= ( + T4 159 )  ( + T7 66 ) ) ( <= ( + T7 79 )( + T4 140 ) ) )
(or ( <= ( + T4 194 )  ( + T7 79 ) ) ( <= ( + T7 144 )( + T4 159 ) ) )
(or ( <= ( + T4 287 )  ( + T7 144 ) ) ( <= ( + T7 219 )( + T4 194 ) ) )
(or ( <= ( + T4 52 ) T8 ) ( <= ( + T8 77 ) T4 ) )
(or ( <= ( + T4 104 )  ( + T8 77 ) ) ( <= ( + T8 122 )( + T4 52 ) ) )
(or ( <= ( + T4 140 )  ( + T8 122 ) ) ( <= ( + T8 175 )( + T4 104 ) ) )
(or ( <= ( + T4 159 )  ( + T8 175 ) ) ( <= ( + T8 227 )( + T4 140 ) ) )
(or ( <= ( + T4 194 )  ( + T8 227 ) ) ( <= ( + T8 250 )( + T4 159 ) ) )
(or ( <= ( + T4 287 )  ( + T8 250 ) ) ( <= ( + T8 257 )( + T4 194 ) ) )
(or ( <= ( + T5 1 ) T6 ) ( <= ( + T6 95 ) T5 ) )
(or ( <= ( + T5 47 )  ( + T6 95 ) ) ( <= ( + T6 128 )( + T5 1 ) ) )
(or ( <= ( + T5 118 )  ( + T6 128 ) ) ( <= ( + T6 151 )( + T5 47 ) ) )
(or ( <= ( + T5 203 )  ( + T6 151 ) ) ( <= ( + T6 233 )( + T5 118 ) ) )
(or ( <= ( + T5 237 )  ( + T6 233 ) ) ( <= ( + T6 284 )( + T5 203 ) ) )
(or ( <= ( + T5 254 )  ( + T6 284 ) ) ( <= ( + T6 371 )( + T5 237 ) ) )
(or ( <= ( + T5 1 ) T7 ) ( <= ( + T7 20 ) T5 ) )
(or ( <= ( + T5 47 )  ( + T7 20 ) ) ( <= ( + T7 49 )( + T5 1 ) ) )
(or ( <= ( + T5 118 )  ( + T7 49 ) ) ( <= ( + T7 66 )( + T5 47 ) ) )
(or ( <= ( + T5 203 )  ( + T7 66 ) ) ( <= ( + T7 79 )( + T5 118 ) ) )
(or ( <= ( + T5 237 )  ( + T7 79 ) ) ( <= ( + T7 144 )( + T5 203 ) ) )
(or ( <= ( + T5 254 )  ( + T7 144 ) ) ( <= ( + T7 219 )( + T5 237 ) ) )
(or ( <= ( + T5 1 ) T8 ) ( <= ( + T8 77 ) T5 ) )
(or ( <= ( + T5 47 )  ( + T8 77 ) ) ( <= ( + T8 122 )( + T5 1 ) ) )
(or ( <= ( + T5 118 )  ( + T8 122 ) ) ( <= ( + T8 175 )( + T5 47 ) ) )
(or ( <= ( + T5 203 )  ( + T8 175 ) ) ( <= ( + T8 227 )( + T5 118 ) ) )
(or ( <= ( + T5 237 )  ( + T8 227 ) ) ( <= ( + T8 250 )( + T5 203 ) ) )
(or ( <= ( + T5 254 )  ( + T8 250 ) ) ( <= ( + T8 257 )( + T5 237 ) ) )
(or ( <= ( + T6 95 ) T7 ) ( <= ( + T7 20 ) T6 ) )
(or ( <= ( + T6 128 )  ( + T7 20 ) ) ( <= ( + T7 49 )( + T6 95 ) ) )
(or ( <= ( + T6 151 )  ( + T7 49 ) ) ( <= ( + T7 66 )( + T6 128 ) ) )
(or ( <= ( + T6 233 )  ( + T7 66 ) ) ( <= ( + T7 79 )( + T6 151 ) ) )
(or ( <= ( + T6 284 )  ( + T7 79 ) ) ( <= ( + T7 144 )( + T6 233 ) ) )
(or ( <= ( + T6 371 )  ( + T7 144 ) ) ( <= ( + T7 219 )( + T6 284 ) ) )
(or ( <= ( + T6 95 ) T8 ) ( <= ( + T8 77 ) T6 ) )
(or ( <= ( + T6 128 )  ( + T8 77 ) ) ( <= ( + T8 122 )( + T6 95 ) ) )
(or ( <= ( + T6 151 )  ( + T8 122 ) ) ( <= ( + T8 175 )( + T6 128 ) ) )
(or ( <= ( + T6 233 )  ( + T8 175 ) ) ( <= ( + T8 227 )( + T6 151 ) ) )
(or ( <= ( + T6 284 )  ( + T8 227 ) ) ( <= ( + T8 250 )( + T6 233 ) ) )
(or ( <= ( + T6 371 )  ( + T8 250 ) ) ( <= ( + T8 257 )( + T6 284 ) ) )
(or ( <= ( + T7 20 ) T8 ) ( <= ( + T8 77 ) T7 ) )
(or ( <= ( + T7 49 )  ( + T8 77 ) ) ( <= ( + T8 122 )( + T7 20 ) ) )
(or ( <= ( + T7 66 )  ( + T8 122 ) ) ( <= ( + T8 175 )( + T7 49 ) ) )
(or ( <= ( + T7 79 )  ( + T8 175 ) ) ( <= ( + T8 227 )( + T7 66 ) ) )
(or ( <= ( + T7 144 )  ( + T8 227 ) ) ( <= ( + T8 250 )( + T7 79 ) ) )
(or ( <= ( + T7 219 )  ( + T8 250 ) ) ( <= ( + T8 257 )( + T7 144 ) ) )
( <= ( + T1 413 ) Z)
( <= ( + T2 407 ) Z)
( <= ( + T3 213 ) Z)
( <= ( + T4 287 ) Z)
( <= ( + T5 254 ) Z)
( <= ( + T6 371 ) Z)
( <= ( + T7 219 ) Z)
( <= ( + T8 257 ) Z)
( >= T1 0 )
( >= T2 0 )
( >= T3 0 )
( >= T4 0 )
( >= T5 0 )
( >= T6 0 )
( >= T7 0 )
( >= T8 0 )
) )
)(=> $phi $goal))))